(set-info :smt-lib-version 2.6)
(set-logic QF_NRA)

(set-info :category "crafted")
(set-info :status unsat)
(declare-fun x () Real)
(declare-fun y () Real)
(assert (> y (- (- (* (* (* (* (* (* (* (* (* (* (- (- x) 2) (- (- x) 2)) (- (- x) 2)) (- (- x) 2)) (- (- x) 2)) (- (- x) 2)) (- (- x) 2)) (- (- x) 2)) (- (- x) 2)) (- (- x) 2)) (- (- x) 2)) (* (* (* (* (* (* (* (* (* (- (- x) 3) (- (- x) 3)) (- (- x) 3)) (- (- x) 3)) (- (- x) 3)) (- (- x) 3)) (- (- x) 3)) (- (- x) 3)) (- (- x) 3)) (- (- x) 3))) 1)))
(assert (< (* 2 y) (- x 2)))
(assert (> (* 2 y) (- 1 (* x x))))
(assert (< (* 3 y) (- (- x) 2)))
(assert (> (* (* y y) y) (- (- (* (* (* (* (* (* (* (* (* (* (- x 2) (- x 2)) (- x 2)) (- x 2)) (- x 2)) (- x 2)) (- x 2)) (- x 2)) (- x 2)) (- x 2)) (- x 2)) (* (* (* (* (* (* (* (* (* (- x 2) (- x 2)) (- x 2)) (- x 2)) (- x 2)) (- x 2)) (- x 2)) (- x 2)) (- x 2)) (- x 2))) 1)))
(check-sat)
(exit)
